
Gurobi 7.0.2 (win64, Python) logging started 08/20/17 17:32:13


Gurobi 7.0.2 (mac64, Python) logging started Tue Aug 22 10:59:52 2017


Gurobi 7.0.2 (mac64, Python) logging started Tue Aug 22 11:21:16 2017


Gurobi 7.0.2 (mac64, Python) logging started Tue Aug 22 11:58:21 2017

